2303 99
4063 38933
34390 30569
18393 59157
40718 43614
2407 14189
54718 52530
55452 11801
9357 63988
36872 5958
62178 38325
26404 63850
23309 44702
35588 56604
45579 9081
14879 14174
43688 42319
29797 10068
20971 20877
34452 47607
3049 2591
7894 36205
61932 54218
15436 52869
63929 52953
20989 33904
42334 4027
2543 57786
12965 6474
9912 16977
58752 21243
28992 6559
11169 51102
10800 63194
19827 42844
56315 54949
44631 16119
35744 3498
35591 32192
13404 13762
33662 50260
8438 30322
18179 54704
13317 45843
48723 34636
65042 3637
57759 40164
46329 1277
22366 65001
1626 3438
30119 26765
64849 2330
54710 7638
16440 56630
12987 54670
